smt/acc-fold/bench/smt2/ll_slk-6.smt2
(set-logic QF_S)

(declare-sort node 0)
(declare-fun nxt () (Field node node))

(define-fun ll ((?in node) (?n Int))
Space (tospace
(or
(and 
(= ?in nil)
(= ?n 0)

)(exists ((?a node)(?m Int))(and 
(= ?n (+ ?m 1))
(tobool (ssep 
(pto ?in  (ref nxt ?a))
(ll ?a ?m)
) )
)))))
















(declare-fun x () node)
(declare-fun n () Int)


(assert 
(and 
(> n 0)
(tobool (ssep 
(ll x n)
emp
) )
)
)

(assert (not 
(exists ((q node))(and 
(tobool (ssep 
(pto x  (ref nxt q))
(ll q (- n 1))
emp
) )
))
))

(check-sat)